
Gurobi 7.5.2 (win64, Python) logging started 04/12/18 02:17:12

Academic license - for non-commercial use only
Optimize a model with 20682 rows, 9720 columns and 46421 nonzeros
Variable types: 0 continuous, 9720 integer (9720 binary)
Coefficient statistics:
  Matrix range     [1e+00, 6e+01]
  Objective range  [2e-01, 4e+00]
  Bounds range     [1e+00, 1e+00]
  RHS range        [1e+00, 1e+00]
Found heuristic solution: objective 217.8793843
Presolve removed 20642 rows and 9577 columns
Presolve time: 0.03s
Presolved: 40 rows, 143 columns, 286 nonzeros
Found heuristic solution: objective 259.7715499
Variable types: 0 continuous, 143 integer (143 binary)

Root relaxation: cutoff, 41 iterations, 0.00 seconds

    Nodes    |    Current Node    |     Objective Bounds      |     Work
 Expl Unexpl |  Obj  Depth IntInf | Incumbent    BestBd   Gap | It/Node Time

     0     0     cutoff    0       259.77155  259.77155  0.00%     -    0s

Explored 0 nodes (41 simplex iterations) in 0.11 seconds
Thread count was 4 (of 4 available processors)

Solution count 2: 259.772 243.854 

Optimal solution found (tolerance 1.00e-04)
Best objective 2.597715498844e+02, best bound 2.597715498844e+02, gap 0.0000%
Optimize a model with 133973 rows, 62396 columns and 301350 nonzeros
Variable types: 0 continuous, 62396 integer (62396 binary)
Coefficient statistics:
  Matrix range     [1e+00, 3e+02]
  Objective range  [4e-02, 5e+00]
  Bounds range     [1e+00, 1e+00]
  RHS range        [1e+00, 1e+00]
Found heuristic solution: objective 246.0063664
Presolve removed 133627 rows and 61316 columns
Presolve time: 0.18s
Presolved: 346 rows, 1080 columns, 2565 nonzeros
Found heuristic solution: objective 711.8968850
Variable types: 0 continuous, 1080 integer (1080 binary)

Root relaxation: objective 7.123955e+02, 259 iterations, 0.00 seconds

    Nodes    |    Current Node    |     Objective Bounds      |     Work
 Expl Unexpl |  Obj  Depth IntInf | Incumbent    BestBd   Gap | It/Node Time

*    0     0               0     712.3954605  712.39546  0.00%     -    0s

Explored 0 nodes (259 simplex iterations) in 0.33 seconds
Thread count was 4 (of 4 available processors)

Solution count 3: 712.395 711.897 394.333 

Optimal solution found (tolerance 1.00e-04)
Best objective 7.123954605029e+02, best bound 7.123954605029e+02, gap 0.0000%
Optimize a model with 133973 rows, 62396 columns and 301350 nonzeros
Variable types: 0 continuous, 62396 integer (62396 binary)
Coefficient statistics:
  Matrix range     [1e+00, 3e+02]
  Objective range  [4e-02, 5e+00]
  Bounds range     [1e+00, 1e+00]
  RHS range        [1e+00, 1e+00]
Found heuristic solution: objective 274.0063664
Presolve removed 133622 rows and 61312 columns
Presolve time: 0.15s
Presolved: 351 rows, 1084 columns, 2585 nonzeros
Found heuristic solution: objective 967.4597319
Variable types: 0 continuous, 1084 integer (1084 binary)

Root relaxation: objective 9.712503e+02, 205 iterations, 0.00 seconds

    Nodes    |    Current Node    |     Objective Bounds      |     Work
 Expl Unexpl |  Obj  Depth IntInf | Incumbent    BestBd   Gap | It/Node Time

*    0     0               0     971.2503297  971.25033  0.00%     -    0s

Explored 0 nodes (205 simplex iterations) in 0.28 seconds
Thread count was 4 (of 4 available processors)

Solution count 3: 971.25 967.46 484.018 

Optimal solution found (tolerance 1.00e-04)
Best objective 9.712503297467e+02, best bound 9.712503297467e+02, gap 0.0000%

Gurobi 7.5.2 (win64, Python) logging started 04/12/18 10:37:46

Academic license - for non-commercial use only
Optimize a model with 124716 rows, 57442 columns and 278040 nonzeros
Variable types: 0 continuous, 57442 integer (57442 binary)
Coefficient statistics:
  Matrix range     [1e+00, 3e+02]
  Objective range  [4e-02, 5e+00]
  Bounds range     [1e+00, 1e+00]
  RHS range        [1e+00, 1e+00]
Found heuristic solution: objective 238.1600698
Presolve removed 124427 rows and 56696 columns
Presolve time: 0.16s
Presolved: 289 rows, 746 columns, 1893 nonzeros
Found heuristic solution: objective 639.9504516
Variable types: 0 continuous, 746 integer (746 binary)

Root relaxation: objective 6.404490e+02, 175 iterations, 0.00 seconds

    Nodes    |    Current Node    |     Objective Bounds      |     Work
 Expl Unexpl |  Obj  Depth IntInf | Incumbent    BestBd   Gap | It/Node Time

*    0     0               0     640.4490271  640.44903  0.00%     -    0s

Explored 0 nodes (175 simplex iterations) in 0.30 seconds
Thread count was 4 (of 4 available processors)

Solution count 3: 640.449 639.95 399.554 

Optimal solution found (tolerance 1.00e-04)
Best objective 6.404490271350e+02, best bound 6.404490271350e+02, gap 0.0000%

Gurobi 7.5.2 (win64, Python) logging started 04/30/18 14:35:30

Academic license - for non-commercial use only

Gurobi 7.5.2 (win64, Python) logging started 04/30/18 15:08:55

Academic license - for non-commercial use only
Optimize a model with 49031 rows, 22330 columns and 102901 nonzeros
Variable types: 0 continuous, 22330 integer (22330 binary)
Coefficient statistics:
  Matrix range     [1e+00, 3e+02]
  Objective range  [5e-02, 4e+00]
  Bounds range     [1e+00, 1e+00]
  RHS range        [1e+00, 1e+00]
Found heuristic solution: objective 86.5601029
Presolve removed 48675 rows and 21678 columns
Presolve time: 0.21s
Presolved: 356 rows, 652 columns, 2139 nonzeros
Found heuristic solution: objective 280.1165393
Variable types: 0 continuous, 652 integer (652 binary)

Root relaxation: cutoff, 178 iterations, 0.00 seconds

    Nodes    |    Current Node    |     Objective Bounds      |     Work
 Expl Unexpl |  Obj  Depth IntInf | Incumbent    BestBd   Gap | It/Node Time

     0     0     cutoff    0       280.11654  280.11654  0.00%     -    0s

Explored 0 nodes (178 simplex iterations) in 0.40 seconds
Thread count was 4 (of 4 available processors)

Solution count 2: 280.117 224.31 

Optimal solution found (tolerance 1.00e-04)
Best objective 2.801165392976e+02, best bound 2.801165392976e+02, gap 0.0000%
Optimize a model with 273056 rows, 143374 columns and 664453 nonzeros
Variable types: 0 continuous, 143374 integer (143374 binary)
Coefficient statistics:
  Matrix range     [1e+00, 3e+02]
  Objective range  [4e-02, 1e+01]
  Bounds range     [1e+00, 1e+00]
  RHS range        [1e+00, 1e+00]
Presolve removed 271203 rows and 136412 columns
Presolve time: 1.57s
Presolved: 1853 rows, 6962 columns, 30589 nonzeros
Variable types: 0 continuous, 6962 integer (6962 binary)

Root relaxation: infeasible, 1270 iterations, 0.03 seconds

    Nodes    |    Current Node    |     Objective Bounds      |     Work
 Expl Unexpl |  Obj  Depth IntInf | Incumbent    BestBd   Gap | It/Node Time

     0     0 infeasible    0               - infeasible      -     -    2s

Explored 0 nodes (1270 simplex iterations) in 2.02 seconds
Thread count was 4 (of 4 available processors)

Solution count 0

Model is infeasible
Best objective -, best bound -, gap -
Optimize a model with 273056 rows, 143374 columns and 664453 nonzeros
Variable types: 0 continuous, 143374 integer (143374 binary)
Coefficient statistics:
  Matrix range     [1e+00, 3e+02]
  Objective range  [4e-02, 1e+01]
  Bounds range     [1e+00, 1e+00]
  RHS range        [1e+00, 1e+00]
Presolve removed 271203 rows and 136412 columns
Presolve time: 1.98s
Presolved: 1853 rows, 6962 columns, 30589 nonzeros
Variable types: 0 continuous, 6962 integer (6962 binary)

Root relaxation: infeasible, 1270 iterations, 0.07 seconds

    Nodes    |    Current Node    |     Objective Bounds      |     Work
 Expl Unexpl |  Obj  Depth IntInf | Incumbent    BestBd   Gap | It/Node Time

     0     0 infeasible    0               - infeasible      -     -    2s

Explored 0 nodes (1270 simplex iterations) in 2.69 seconds
Thread count was 4 (of 4 available processors)

Solution count 0

Model is infeasible
Best objective -, best bound -, gap -
Optimize a model with 175040 rows, 90398 columns and 418460 nonzeros
Variable types: 0 continuous, 90398 integer (90398 binary)
Coefficient statistics:
  Matrix range     [1e+00, 3e+02]
  Objective range  [5e-02, 1e+01]
  Bounds range     [1e+00, 1e+00]
  RHS range        [1e+00, 1e+00]
Found heuristic solution: objective 479.0064352
Presolve removed 173424 rows and 86118 columns
Presolve time: 0.43s
Presolved: 1616 rows, 4280 columns, 17707 nonzeros
Found heuristic solution: objective 1080.1933810
Variable types: 0 continuous, 4280 integer (4280 binary)

Root relaxation: objective 1.083289e+03, 916 iterations, 0.02 seconds

    Nodes    |    Current Node    |     Objective Bounds      |     Work
 Expl Unexpl |  Obj  Depth IntInf | Incumbent    BestBd   Gap | It/Node Time

     0     0 1083.28898    0   16 1080.19338 1083.28898  0.29%     -    0s
H    0     0                    1082.8465758 1083.28898  0.04%     -    0s
*    0     0               0    1083.1790472 1083.17905  0.00%     -    0s

Cutting planes:
  Clique: 1
  Zero half: 3

Explored 1 nodes (1124 simplex iterations) in 0.73 seconds
Thread count was 4 (of 4 available processors)

Solution count 4: 1083.18 1082.85 1080.19 807.681 

Optimal solution found (tolerance 1.00e-04)
Best objective 1.083179047208e+03, best bound 1.083179047208e+03, gap 0.0000%
Optimize a model with 257524 rows, 133210 columns and 623528 nonzeros
Variable types: 0 continuous, 133210 integer (133210 binary)
Coefficient statistics:
  Matrix range     [1e+00, 3e+02]
  Objective range  [5e-02, 1e+01]
  Bounds range     [1e+00, 1e+00]
  RHS range        [1e+00, 1e+00]
Found heuristic solution: objective 603.9469563
Presolve removed 255772 rows and 127595 columns
Presolve time: 0.96s
Presolved: 1752 rows, 5615 columns, 24660 nonzeros
Found heuristic solution: objective 1527.8180817
Variable types: 0 continuous, 5615 integer (5615 binary)

Root relaxation: objective 1.544301e+03, 1394 iterations, 0.05 seconds

    Nodes    |    Current Node    |     Objective Bounds      |     Work
 Expl Unexpl |  Obj  Depth IntInf | Incumbent    BestBd   Gap | It/Node Time

     0     0 1544.30104    0   52 1527.81808 1544.30104  1.08%     -    1s
H    0     0                    1538.9052878 1544.30104  0.35%     -    1s
H    0     0                    1541.2402260 1544.30104  0.20%     -    1s
     0     0 1544.17346    0   31 1541.24023 1544.17346  0.19%     -    1s
     0     0 1544.17346    0   50 1541.24023 1544.17346  0.19%     -    1s
     0     0 1544.17346    0   53 1541.24023 1544.17346  0.19%     -    1s
H    0     0                    1541.2761737 1544.17346  0.19%     -    1s
     0     0 1543.73988    0   53 1541.27617 1543.73988  0.16%     -    1s
     0     0 1543.10800    0   42 1541.27617 1543.10800  0.12%     -    1s
H    0     0                    1542.5860381 1543.10800  0.03%     -    2s
*    0     0               0    1543.1065509 1543.10655  0.00%     -    2s

Cutting planes:
  Gomory: 3
  Clique: 17
  Zero half: 7

Explored 1 nodes (4470 simplex iterations) in 2.08 seconds
Thread count was 4 (of 4 available processors)

Solution count 7: 1543.11 1542.59 1541.28 ... 1112.96

Optimal solution found (tolerance 1.00e-04)
Best objective 1.543106550873e+03, best bound 1.543106550873e+03, gap 0.0000%
Optimize a model with 124716 rows, 57442 columns and 278040 nonzeros
Variable types: 0 continuous, 57442 integer (57442 binary)
Coefficient statistics:
  Matrix range     [1e+00, 3e+02]
  Objective range  [4e-02, 5e+00]
  Bounds range     [1e+00, 1e+00]
  RHS range        [1e+00, 1e+00]
Found heuristic solution: objective 238.1600698
Presolve removed 124427 rows and 56696 columns
Presolve time: 0.15s
Presolved: 289 rows, 746 columns, 1893 nonzeros
Found heuristic solution: objective 639.9504516
Variable types: 0 continuous, 746 integer (746 binary)

Root relaxation: objective 6.404490e+02, 175 iterations, 0.00 seconds

    Nodes    |    Current Node    |     Objective Bounds      |     Work
 Expl Unexpl |  Obj  Depth IntInf | Incumbent    BestBd   Gap | It/Node Time

*    0     0               0     640.4490271  640.44903  0.00%     -    0s

Explored 0 nodes (175 simplex iterations) in 0.28 seconds
Thread count was 4 (of 4 available processors)

Solution count 3: 640.449 639.95 399.554 

Optimal solution found (tolerance 1.00e-04)
Best objective 6.404490271350e+02, best bound 6.404490271350e+02, gap 0.0000%
Optimize a model with 124716 rows, 57442 columns and 278040 nonzeros
Variable types: 0 continuous, 57442 integer (57442 binary)
Coefficient statistics:
  Matrix range     [1e+00, 3e+02]
  Objective range  [4e-02, 5e+00]
  Bounds range     [1e+00, 1e+00]
  RHS range        [1e+00, 1e+00]
Found heuristic solution: objective 515.6980288
Presolve removed 124427 rows and 56696 columns
Presolve time: 0.16s
Presolved: 289 rows, 746 columns, 1893 nonzeros
Found heuristic solution: objective 710.3365010
Variable types: 0 continuous, 746 integer (746 binary)

Root relaxation: objective 7.108351e+02, 354 iterations, 0.00 seconds

    Nodes    |    Current Node    |     Objective Bounds      |     Work
 Expl Unexpl |  Obj  Depth IntInf | Incumbent    BestBd   Gap | It/Node Time

*    0     0               0     710.8350765  710.83508  0.00%     -    0s

Explored 0 nodes (354 simplex iterations) in 0.32 seconds
Thread count was 4 (of 4 available processors)

Solution count 3: 710.835 710.337 598.785 

Optimal solution found (tolerance 1.00e-04)
Best objective 7.108350764909e+02, best bound 7.108350764909e+02, gap 0.0000%
